nK = 1201;
nT = 4;
nI = 7;
L = 35;
TT = 277;
np = 1;
nc = 3;
b = [60, 65, 42, 55, 51, 29, 29];
d = [108, 116, 143, 112, 106, 93, 87];
m = [1.4, 2.3, 2.1, 2.2, 1.2, 1.4, 1.5];
pt = [0.25, 0.24, 0.22, 0.34];
st = [10, 13.44, 12.76, 19.72];
arc = {<1, 0, 1, 1, 0, 0, 0, [1, 1, 1, 1]>, <2, 1, 2, 1, 0, 0, 0, [1, 1, 1, 1]>, <3, 2, 3, 1, 0, 0, 0, [1, 1, 1, 1]>, <4, 3, 4, 1, 0, 0, 0, [1, 1, 1, 1]>, <5, 4, 5, 1, 0, 0, 0, [1, 1, 1, 1]>, <6, 5, 6, 1, 0, 0, 0, [1, 1, 1, 1]>, <7, 6, 7, 1, 0, 0, 0, [1, 1, 1, 1]>, <8, 7, 8, 1, 0, 0, 0, [1, 1, 1, 1]>, <9, 8, 9, 1, 0, 0, 0, [1, 1, 1, 1]>, <10, 9, 10, 1, 0, 0, 0, [1, 1, 1, 1]>, <11, 10, 11, 1, 0, 0, 0, [1, 1, 1, 1]>, <12, 11, 12, 1, 0, 0, 0, [1, 1, 1, 1]>, <13, 12, 13, 1, 0, 0, 0, [1, 1, 1, 1]>, <14, 13, 14, 1, 0, 0, 0, [1, 1, 1, 1]>, <15, 14, 15, 1, 0, 0, 0, [1, 1, 1, 1]>, <16, 15, 16, 1, 0, 0, 0, [1, 1, 1, 1]>, <17, 16, 17, 1, 0, 0, 0, [1, 1, 1, 1]>, <18, 17, 18, 1, 0, 0, 0, [1, 1, 1, 1]>, <19, 18, 19, 1, 0, 0, 0, [1, 1, 1, 1]>, <20, 19, 20, 1, 0, 0, 0, [1, 1, 1, 1]>, <21, 20, 21, 1, 0, 0, 0, [1, 1, 1, 1]>, <22, 21, 22, 1, 0, 0, 0, [1, 1, 1, 1]>, <23, 22, 23, 1, 0, 0, 0, [1, 1, 1, 1]>, <24, 23, 24, 1, 0, 0, 0, [1, 1, 1, 1]>, <25, 24, 25, 1, 0, 0, 0, [1, 1, 1, 1]>, <26, 25, 26, 1, 0, 0, 0, [1, 1, 1, 1]>, <27, 26, 27, 1, 0, 0, 0, [1, 1, 1, 1]>, <28, 27, 28, 1, 0, 0, 0, [1, 1, 1, 1]>, <29, 28, 29, 1, 0, 0, 0, [1, 1, 1, 1]>, <30, 29, 30, 1, 0, 0, 0, [1, 1, 1, 1]>, <31, 30, 31, 1, 0, 0, 0, [1, 1, 1, 1]>, <32, 31, 32, 1, 0, 0, 0, [1, 1, 1, 1]>, <33, 32, 33, 1, 0, 0, 0, [1, 1, 1, 1]>, <34, 33, 34, 1, 0, 0, 0, [1, 1, 1, 1]>, <35, 34, 35, 1, 0, 0, 0, [1, 1, 1, 1]>, <36, 0, 19, 19, 1, 1, 0, [1, 1, 0, 0]>, <37, 1, 20, 19, 1, 1, 0, [1, 1, 0, 0]>, <38, 2, 21, 19, 1, 1, 0, [1, 1, 0, 0]>, <39, 3, 22, 19, 1, 1, 0, [1, 1, 0, 0]>, <40, 4, 23, 19, 1, 1, 0, [1, 1, 0, 0]>, <41, 5, 24, 19, 1, 1, 0, [1, 1, 0, 0]>, <42, 6, 25, 19, 1, 1, 0, [1, 1, 0, 0]>, <43, 7, 26, 19, 1, 1, 0, [1, 1, 0, 0]>, <44, 8, 27, 19, 1, 1, 0, [1, 1, 0, 0]>, <45, 9, 28, 19, 1, 1, 0, [1, 1, 0, 0]>, <46, 10, 29, 19, 1, 1, 0, [1, 1, 0, 0]>, <47, 11, 30, 19, 1, 1, 0, [1, 1, 0, 0]>, <48, 12, 31, 19, 1, 1, 0, [1, 1, 0, 0]>, <49, 13, 32, 19, 1, 1, 0, [1, 1, 0, 0]>, <50, 14, 33, 19, 1, 1, 0, [1, 1, 0, 0]>, <51, 15, 34, 19, 1, 1, 0, [1, 1, 0, 0]>, <52, 16, 35, 19, 1, 1, 0, [1, 1, 0, 0]>, <53, 1, 17, 16, 2, 1, 0, [1, 1, 0, 0]>, <54, 2, 18, 16, 2, 1, 0, [1, 1, 0, 0]>, <55, 3, 19, 16, 2, 1, 0, [1, 1, 0, 0]>, <56, 4, 20, 16, 2, 1, 0, [1, 1, 0, 0]>, <57, 5, 21, 16, 2, 1, 0, [1, 1, 0, 0]>, <58, 6, 22, 16, 2, 1, 0, [1, 1, 0, 0]>, <59, 10, 26, 16, 2, 1, 0, [1, 1, 0, 0]>, <60, 11, 27, 16, 2, 1, 0, [1, 1, 0, 0]>, <61, 12, 28, 16, 2, 1, 0, [1, 1, 0, 0]>, <62, 13, 29, 16, 2, 1, 0, [1, 1, 0, 0]>, <63, 14, 30, 16, 2, 1, 0, [1, 1, 0, 0]>, <64, 15, 31, 16, 2, 1, 0, [1, 1, 0, 0]>, <65, 16, 32, 16, 2, 1, 0, [1, 1, 0, 0]>, <66, 17, 33, 16, 2, 1, 0, [1, 1, 0, 0]>, <67, 18, 34, 16, 2, 1, 0, [1, 1, 0, 0]>, <68, 19, 35, 16, 2, 1, 0, [1, 1, 0, 0]>, <69, 0, 19, 19, 3, 0, 0, [0, 0, 1, 1]>, <70, 1, 20, 19, 3, 0, 0, [0, 0, 1, 1]>, <71, 2, 21, 19, 3, 0, 0, [0, 0, 1, 1]>, <72, 3, 22, 19, 3, 0, 0, [0, 0, 1, 1]>, <73, 4, 23, 19, 3, 0, 0, [0, 0, 1, 1]>, <74, 5, 24, 19, 3, 0, 0, [0, 0, 1, 1]>, <75, 6, 25, 19, 3, 0, 0, [0, 0, 1, 1]>, <76, 7, 26, 19, 3, 0, 0, [0, 0, 1, 1]>, <77, 8, 27, 19, 3, 0, 0, [0, 0, 1, 1]>, <78, 9, 28, 19, 3, 0, 0, [0, 0, 1, 1]>, <79, 10, 29, 19, 3, 0, 0, [0, 0, 1, 1]>, <80, 11, 30, 19, 3, 0, 0, [0, 0, 1, 1]>, <81, 12, 31, 19, 3, 0, 0, [0, 0, 1, 1]>, <82, 13, 32, 19, 3, 0, 0, [0, 0, 1, 1]>, <83, 14, 33, 19, 3, 0, 0, [0, 0, 1, 1]>, <84, 15, 34, 19, 3, 0, 0, [0, 0, 1, 1]>, <85, 16, 35, 19, 3, 0, 0, [0, 0, 1, 1]>, <86, 0, 21, 21, 4, 0, 1, [1, 0, 0, 1]>, <87, 1, 22, 21, 4, 0, 1, [1, 0, 0, 1]>, <88, 2, 23, 21, 4, 0, 1, [1, 0, 0, 1]>, <89, 3, 24, 21, 4, 0, 1, [1, 0, 0, 1]>, <90, 4, 25, 21, 4, 0, 1, [1, 0, 0, 1]>, <91, 5, 26, 21, 4, 0, 1, [1, 0, 0, 1]>, <92, 6, 27, 21, 4, 0, 1, [1, 0, 0, 1]>, <93, 7, 28, 21, 4, 0, 1, [1, 0, 0, 1]>, <94, 8, 29, 21, 4, 0, 1, [1, 0, 0, 1]>, <95, 9, 30, 21, 4, 0, 1, [1, 0, 0, 1]>, <96, 10, 31, 21, 4, 0, 1, [1, 0, 0, 1]>, <97, 11, 32, 21, 4, 0, 1, [1, 0, 0, 1]>, <98, 12, 33, 21, 4, 0, 1, [1, 0, 0, 1]>, <99, 13, 34, 21, 4, 0, 1, [1, 0, 0, 1]>, <100, 14, 35, 21, 4, 0, 1, [1, 0, 0, 1]>, <101, 0, 18, 18, 5, 0, 1, [1, 0, 0, 1]>, <102, 1, 19, 18, 5, 0, 1, [1, 0, 0, 1]>, <103, 2, 20, 18, 5, 0, 1, [1, 0, 0, 1]>, <104, 3, 21, 18, 5, 0, 1, [1, 0, 0, 1]>, <105, 4, 22, 18, 5, 0, 1, [1, 0, 0, 1]>, <106, 5, 23, 18, 5, 0, 1, [1, 0, 0, 1]>, <107, 6, 24, 18, 5, 0, 1, [1, 0, 0, 1]>, <108, 8, 26, 18, 5, 0, 1, [1, 0, 0, 1]>, <109, 9, 27, 18, 5, 0, 1, [1, 0, 0, 1]>, <110, 10, 28, 18, 5, 0, 1, [1, 0, 0, 1]>, <111, 11, 29, 18, 5, 0, 1, [1, 0, 0, 1]>, <112, 12, 30, 18, 5, 0, 1, [1, 0, 0, 1]>, <113, 13, 31, 18, 5, 0, 1, [1, 0, 0, 1]>, <114, 14, 32, 18, 5, 0, 1, [1, 0, 0, 1]>, <115, 15, 33, 18, 5, 0, 1, [1, 0, 0, 1]>, <116, 16, 34, 18, 5, 0, 1, [1, 0, 0, 1]>, <117, 17, 35, 18, 5, 0, 1, [1, 0, 0, 1]>, <118, 0, 17, 17, 6, 0, 1, [0, 0, 1, 1]>, <119, 1, 18, 17, 6, 0, 1, [0, 0, 1, 1]>, <120, 2, 19, 17, 6, 0, 1, [0, 0, 1, 1]>, <121, 3, 20, 17, 6, 0, 1, [0, 0, 1, 1]>, <122, 4, 21, 17, 6, 0, 1, [0, 0, 1, 1]>, <123, 5, 22, 17, 6, 0, 1, [0, 0, 1, 1]>, <124, 6, 23, 17, 6, 0, 1, [0, 0, 1, 1]>, <125, 9, 26, 17, 6, 0, 1, [0, 0, 1, 1]>, <126, 10, 27, 17, 6, 0, 1, [0, 0, 1, 1]>, <127, 11, 28, 17, 6, 0, 1, [0, 0, 1, 1]>, <128, 12, 29, 17, 6, 0, 1, [0, 0, 1, 1]>, <129, 13, 30, 17, 6, 0, 1, [0, 0, 1, 1]>, <130, 14, 31, 17, 6, 0, 1, [0, 0, 1, 1]>, <131, 15, 32, 17, 6, 0, 1, [0, 0, 1, 1]>, <132, 16, 33, 17, 6, 0, 1, [0, 0, 1, 1]>, <133, 17, 34, 17, 6, 0, 1, [0, 0, 1, 1]>, <134, 18, 35, 17, 6, 0, 1, [0, 0, 1, 1]>, <135, 0, 22, 22, 7, 0, 1, [1, 1, 0, 0]>, <136, 1, 23, 22, 7, 0, 1, [1, 1, 0, 0]>, <137, 2, 24, 22, 7, 0, 1, [1, 1, 0, 0]>, <138, 3, 25, 22, 7, 0, 1, [1, 1, 0, 0]>, <139, 4, 26, 22, 7, 0, 1, [1, 1, 0, 0]>, <140, 5, 27, 22, 7, 0, 1, [1, 1, 0, 0]>, <141, 6, 28, 22, 7, 0, 1, [1, 1, 0, 0]>, <142, 7, 29, 22, 7, 0, 1, [1, 1, 0, 0]>, <143, 8, 30, 22, 7, 0, 1, [1, 1, 0, 0]>, <144, 9, 31, 22, 7, 0, 1, [1, 1, 0, 0]>, <145, 10, 32, 22, 7, 0, 1, [1, 1, 0, 0]>, <146, 11, 33, 22, 7, 0, 1, [1, 1, 0, 0]>, <147, 12, 34, 22, 7, 0, 1, [1, 1, 0, 0]>, <148, 13, 35, 22, 7, 0, 1, [1, 1, 0, 0]>};
